Medium-instances_NetworkFacilityLocation/2023-03-27_20hr-25min-09sec/Nodes40_Arcs45_LocNodes30/Formulation-2Instance-5.log

Gurobi 9.5.2 (win64) logging started Mon Mar 27 20:28:03 2023

Set parameter LogFile to value "2023-03-27_20hr-25min-09sec/Nodes40_Arcs45_LocNodes30/Formulation-2Instance-5.log"
Set parameter TimeLimit to value 600
Set parameter IntFeasTol to value 1e-09
Set parameter DualReductions to value 0
Set parameter NonConvex to value 2
Gurobi Optimizer version 9.5.2 build v9.5.2rc0 (win64)
Thread count: 4 physical cores, 8 logical processors, using up to 8 threads
Optimize a model with 156 rows, 270 columns and 550 nonzeros
Model fingerprint: 0x7c425f48
Model has 85 quadratic objective terms
Model has 85 SOS constraints
Variable types: 240 continuous, 30 integer (30 binary)
Coefficient statistics:
  Matrix range     [5e-03, 2e+02]
  Objective range  [3e-01, 1e+03]
  QObjective range [1e-02, 8e+00]
  Bounds range     [1e+00, 1e+00]
  RHS range        [3e-01, 3e+03]
Presolve removed 15 rows and 17 columns
Presolve time: 0.00s
Presolved: 141 rows, 253 columns, 515 nonzeros
Presolved model has 80 SOS constraint(s)
Presolved model has 80 quadratic objective terms
Variable types: 223 continuous, 30 integer (30 binary)

Root relaxation: objective 7.223893e+05, 301 iterations, 0.00 seconds (0.00 work units)

    Nodes    |    Current Node    |     Objective Bounds      |     Work
 Expl Unexpl |  Obj  Depth IntInf | Incumbent    BestBd   Gap | It/Node Time

     0     0 722389.293    0    8          - 722389.293      -     -    0s
H    0     0                    709380.98690 722389.293  1.83%     -    0s
H    0     0                    710056.21902 722389.293  1.74%     -    0s
     0     0 722281.628    0    6 710056.219 722281.628  1.72%     -    0s
     0     0 722281.628    0    6 710056.219 722281.628  1.72%     -    0s
     0     0 722277.668    0   23 710056.219 722277.668  1.72%     -    0s
     0     0 722113.827    0   23 710056.219 722113.827  1.70%     -    0s
H    0     0                    710472.47298 722113.827  1.64%     -    0s
     0     0 721927.278    0   20 710472.473 721927.278  1.61%     -    0s
     0     0 721909.731    0   20 710472.473 721909.731  1.61%     -    0s
     0     0 721717.402    0   19 710472.473 721717.402  1.58%     -    0s
     0     0 721642.664    0   17 710472.473 721642.664  1.57%     -    0s
     0     0 721468.260    0   15 710472.473 721468.260  1.55%     -    0s
     0     0 710472.473    0   15 710472.473 710472.473  0.00%     -    0s

Cutting planes:
  Cover: 1
  Implied bound: 5
  MIR: 5
  Flow cover: 22
  Relax-and-lift: 5

Explored 1 nodes (699 simplex iterations) in 0.21 seconds (0.02 work units)
Thread count was 8 (of 8 available processors)

Solution count 3: 710472 710056 709381 

Optimal solution found (tolerance 1.00e-04)
Best objective 7.104724729826e+05, best bound 7.104724729826e+05, gap 0.0000%

User-callback calls 350, time in user-callback 0.00 sec
